************************************************************************
file with basedata            : n/a
initial value random generator: n/a
************************************************************************
projects                      :  1
jobs (incl. supersource/sink ):  122
horizon                       :  648
RESOURCES
  - renewable                 :  4   R
  - nonrenewable              :  0   N
  - doubly constrained        :  0   D
************************************************************************
PROJECT INFORMATION:
pronr.  #jobs rel.date duedate tardcost  MPM-Time
    1    120      0       76       20       76
************************************************************************
PRECEDENCE RELATIONS:
jobnr.    #modes  #successors   successors
   1        1          3           2   3   4
   2        1          2          54  76
   3        1          3          10  11  49
   4        1          3           5   8  73
   5        1          3           6   7  19
   6        1          3           9  14  35
   7        1          2          13  20
   8        1          3          21  31  41
   9        1          1          88
  10        1          2          24  46
  11        1          2          12 103
  12        1          3          16  25  27
  13        1          3          15  18  34
  14        1          2          17  74
  15        1          3          22  37  50
  16        1          3          28  40  60
  17        1          1          26
  18        1          3          45  51 108
  19        1          2          46 120
  20        1          3          33  43  66
  21        1          1          81
  22        1          3          23  30  42
  23        1          1          99
  24        1          3          39  53  64
  25        1          3          47  62  80
  26        1          2          29  96
  27        1          3          32  39  58
  28        1          2          38 117
  29        1          1          56
  30        1          2          52  99
  31        1          2          36 111
  32        1          1          61
  33        1          1         114
  34        1          2          44  92
  35        1          1         106
  36        1          1          91
  37        1          1          78
  38        1          3          63  95 119
  39        1          1          83
  40        1          1          98
  41        1          1          67
  42        1          3          72  75  89
  43        1          1          91
  44        1          1          48
  45        1          1          71
  46        1          1          70
  47        1          2          67  79
  48        1          1         111
  49        1          1          57
  50        1          1         107
  51        1          2          84 105
  52        1          3          55  66  69
  53        1          1          76
  54        1          1         101
  55        1          1          91
  56        1          3          59  68 114
  57        1          1          65
  58        1          1          63
  59        1          1          87
  60        1          3          70  77  98
  61        1          2          64  72
  62        1          2          78  94
  63        1          1          90
  64        1          1         104
  65        1          1          94
  66        1          1          77
  67        1          1          86
  68        1          1          99
  69        1          1         114
  70        1          1          93
  71        1          1          79
  72        1          1         100
  73        1          2          98 102
  74        1          1          82
  75        1          1         109
  76        1          1          85
  77        1          1          81
  78        1          1          86
  79        1          1         116
  80        1          1         113
  81        1          1          84
  82        1          2         110 118
  83        1          1          87
  84        1          1         113
  85        1          1         117
  86        1          1          87
  87        1          1         116
  88        1          1          97
  89        1          1          97
  90        1          1          96
  91        1          1         107
  92        1          1         101
  93        1          1         104
  94        1          1         107
  95        1          1         115
  96        1          1         112
  97        1          1         105
  98        1          1         112
  99        1          1         109
 100        1          3         102 105 110
 101        1          1         115
 102        1          1         120
 103        1          1         106
 104        1          1         121
 105        1          1         119
 106        1          1         117
 107        1          1         110
 108        1          2         109 111
 109        1          1         121
 110        1          1         113
 111        1          1         112
 112        1          1         115
 113        1          1         121
 114        1          1         118
 115        1          1         116
 116        1          1         120
 117        1          1         118
 118        1          1         119
 119        1          1         122
 120        1          1         122
 121        1          1         122
 122        1          0        
************************************************************************
REQUESTS/DURATIONS:
jobnr. mode duration  R 1  R 2  R 3  R 4
------------------------------------------------------------------------
  1      1     0    
  2      1     9       5   5   5   5   5   5   5   5   5
                       9   9   9   9   9   9   9   9   9
                       9   9   9   9   9   9   9   9   9
                       8   8   8   8   8   8   8   8   8
  3      1     7       0   0   0   0   0   0   0
                       5   5   5   5   5   5   5
                       0   0   0   0   0   0   0
                       4   4   4   4   4   4   4
  4      1    10       1   1   1   1   1   1   1   1   1   1
                       4   8   8   8   8   4   8   8   8   8
                       4   7   7   7   7   4   7   7   7   7
                       3   5   5   5   5   3   5   5   5   5
  5      1     8       5   5   5   5   5   5   5   5
                       6   6   6   6   6   6   6   6
                       9   9   9   9   9   9   9   9
                       1   1   1   1   1   1   1   1
  6      1    10       3   3   3   3   3   3   3   3   3   3
                       8   8   8   8   8   8   8   8   8   8
                       5   5   5   5   5   5   5   5   5   5
                       2   2   2   2   2   2   2   2   2   2
  7      1     3       1   1   1
                       5   5   5
                       8   8   8
                       4   4   4
  8      1     3      10  10  10
                       6   6   6
                       0   0   0
                       3   3   3
  9      1     8       0   0   0   0   0   0   0   0
                       0   0   0   0   0   0   0   0
                       0   0   0   0   0   0   0   0
                       6   6   6   3   6   6   6   6
 10      1     5       6   6   6   6   6
                       9   9   9   9   9
                       9   9   9   9   9
                       3   3   3   3   3
 11      1     6       8   8   8   8   8   8
                       3   3   3   3   3   3
                       1   1   1   1   1   1
                      10  10  10  10  10  10
 12      1     6       0   0   0   0   0   0
                      10  10  10  10  10  10
                       0   0   0   0   0   0
                       0   0   0   0   0   0
 13      1     7       4   4   4   4   4   4   4
                       7   7   7   7   7   7   7
                       0   0   0   0   0   0   0
                       2   2   2   2   2   2   2
 14      1     5       7   7   7   7   7
                       0   0   0   0   0
                       1   1   1   1   1
                       4   4   4   4   4
 15      1     1       5
                       5
                       0
                       2
 16      1     2       8   8
                       0   0
                       3   3
                       7   7
 17      1     2       8   8
                       5   5
                       3   3
                       5   5
 18      1     5       0   0   0   0   0
                       1   1   1   1   1
                       4   4   4   4   4
                       9   9   9   9   9
 19      1     5       3   3   3   3   3
                       2   2   2   2   2
                       9   9   9   9   9
                       0   0   0   0   0
 20      1     2       6   6
                       0   0
                       2   2
                       1   1
 21      1     1       0
                       1
                       7
                       2
 22      1     3       9   9   9
                       7   7   7
                       3   3   3
                       0   0   0
 23      1     5       7   4   7   7   7
                       4   2   4   4   4
                       0   0   0   0   0
                       6   3   6   6   6
 24      1     6       0   0   0   0   0   0
                       2   2   2   2   2   2
                       8   8   8   8   8   8
                       5   5   5   5   5   5
 25      1     6       4   4   4   4   4   4
                       0   0   0   0   0   0
                       7   7   7   7   7   7
                       8   8   8   8   8   8
 26      1     6       9   9   9   9   9   9
                      10  10  10  10  10  10
                       0   0   0   0   0   0
                       0   0   0   0   0   0
 27      1     1       9
                       0
                       0
                       2
 28      1     4       2   2   2   2
                       6   6   6   6
                       2   2   2   2
                       8   8   8   8
 29      1     6       8   8   8   8   8   8
                       7   7   7   7   7   7
                       3   3   3   3   3   3
                      10  10  10  10  10  10
 30      1     6       9   9   9   9   9   9
                      10  10  10  10  10  10
                       0   0   0   0   0   0
                       8   8   8   8   8   8
 31      1     8       4   4   4   4   4   4   4   4
                       8   8   8   8   8   8   8   8
                       3   3   3   3   3   3   3   3
                       7   7   7   7   7   7   7   7
 32      1     5       0   0   0   0   0
                       5   5   5   5   5
                       8   8   8   8   8
                       2   2   2   2   2
 33      1     8      10  10  10  10  10  10  10  10
                       5   5   5   5   5   5   5   5
                       2   2   2   2   2   2   2   2
                       0   0   0   0   0   0   0   0
 34      1     5       9   9   9   9   9
                       0   0   0   0   0
                       1   1   1   1   1
                       0   0   0   0   0
 35      1     7       6   6   6   6   6   6   6
                       0   0   0   0   0   0   0
                      10  10  10  10  10  10  10
                       0   0   0   0   0   0   0
 36      1     3       5   3   5
                       2   1   2
                       2   1   2
                       0   0   0
 37      1     6       0   0   0   0   0   0
                       6   6   6   6   6   3
                       0   0   0   0   0   0
                      10  10  10  10  10   5
 38      1     3       0   0   0
                      10  10   5
                       6   6   3
                       0   0   0
 39      1     7       0   0   0   0   0   0   0
                       5   5   5   5   5   5   5
                       6   6   6   6   6   6   6
                      10  10  10  10  10  10  10
 40      1     4       0   0   0   0
                       5   5   5   5
                       9   9   9   9
                       6   6   6   6
 41      1     7       6   6   6   6   6   6   6
                       6   6   6   6   6   6   6
                       7   7   7   7   7   7   7
                       0   0   0   0   0   0   0
 42      1     4       9   9   9   9
                       1   1   1   1
                       6   6   6   6
                       1   1   1   1
 43      1     2       9   5
                       0   0
                       9   5
                       7   4
 44      1     5       1   1   1   1   1
                       4   4   4   4   4
                       0   0   0   0   0
                       7   7   7   7   7
 45      1     8       3   3   3   3   3   3   3   3
                       8   8   8   8   8   8   8   8
                       1   1   1   1   1   1   1   1
                       4   4   4   4   4   4   4   4
 46      1     6       7   7   7   7   4   7
                       0   0   0   0   0   0
                       0   0   0   0   0   0
                       0   0   0   0   0   0
 47      1     2      10  10
                       0   0
                       7   7
                       1   1
 48      1     7      10  10  10  10  10  10  10
                       1   1   1   1   1   1   1
                       4   4   4   4   4   4   4
                       3   3   3   3   3   3   3
 49      1     2       0   0
                       3   3
                       5   5
                       8   8
 50      1     6      10  10  10  10  10  10
                       0   0   0   0   0   0
                       7   7   7   7   7   7
                       4   4   4   4   4   4
 51      1     2       5   5
                       3   3
                       8   8
                       0   0
 52      1     1       0
                       0
                       1
                       4
 53      1     8       0   0   0   0   0   0   0   0
                       1   1   1   1   1   1   1   1
                       5   5   5   5   5   5   5   5
                       6   6   6   6   6   6   6   6
 54      1     6       6   6   6   6   6   6
                       4   4   4   4   4   4
                       0   0   0   0   0   0
                       8   8   8   8   8   8
 55      1     6       5   5   5   3   5   5
                       4   4   4   2   4   4
                       8   8   8   4   8   8
                       9   9   9   5   9   9
 56      1     2       3   3
                       6   6
                       3   3
                       0   0
 57      1     8       2   2   2   2   2   2   2   2
                       0   0   0   0   0   0   0   0
                       4   4   4   4   4   4   4   4
                       0   0   0   0   0   0   0   0
 58      1    10       7   7   7   7   7   7   7   7   7   7
                       4   4   4   4   4   4   4   4   4   4
                       7   7   7   7   7   7   7   7   7   7
                       1   1   1   1   1   1   1   1   1   1
 59      1     7       0   0   0   0   0   0   0
                       9   9   9   9   9   9   9
                       3   3   3   3   3   3   3
                       0   0   0   0   0   0   0
 60      1     9       8   8   8   8   8   8   8   8   8
                       9   9   9   9   9   9   9   9   9
                       2   2   2   2   2   2   2   2   2
                       0   0   0   0   0   0   0   0   0
 61      1     9       5   5   5   5   5   5   5   5   3
                       8   8   8   8   8   8   8   8   4
                       0   0   0   0   0   0   0   0   0
                       5   5   5   5   5   5   5   5   3
 62      1     9       2   2   2   2   2   2   2   2   2
                       1   1   1   1   1   1   1   1   1
                       1   1   1   1   1   1   1   1   1
                       2   2   2   2   2   2   2   2   2
 63      1     5      10  10   5  10  10
                       0   0   0   0   0
                       5   5   3   5   5
                       9   9   5   9   9
 64      1     7       1   1   1   1   1   1   1
                       9   9   9   5   9   9   9
                       5   5   5   3   5   5   5
                      10  10  10   5  10  10  10
 65      1     9       5   5   5   5   5   3   3   5   5
                       6   6   6   6   6   3   3   6   6
                       5   5   5   5   5   3   3   5   5
                       6   6   6   6   6   3   3   6   6
 66      1     1       0
                       3
                       4
                       6
 67      1     6       3   3   3   3   3   3
                       7   7   7   7   7   7
                       2   2   2   2   2   2
                       3   3   3   3   3   3
 68      1     2       0   0
                       0   0
                       7   7
                       2   2
 69      1     8       0   0   0   0   0   0   0   0
                       1   1   1   1   1   1   1   1
                       1   1   1   1   1   1   1   1
                       0   0   0   0   0   0   0   0
 70      1     5       0   0   0   0   0
                       3   3   3   3   3
                       1   1   1   1   1
                      10  10  10  10  10
 71      1     2       0   0
                       2   2
                       0   0
                       2   2
 72      1     8       0   0   0   0   0   0   0   0
                       3   3   3   3   3   3   3   3
                       4   4   4   4   4   4   4   4
                       3   3   3   3   3   3   3   3
 73      1     5       0   0   0   0   0
                       0   0   0   0   0
                       0   0   0   0   0
                       5   5   5   5   5
 74      1     6      10  10  10  10  10  10
                       2   2   2   2   2   2
                       7   7   7   7   7   7
                      10  10  10  10  10  10
 75      1     7       7   7   7   7   7   7   7
                       3   3   3   3   3   3   3
                       4   4   4   4   4   4   4
                       5   5   5   5   5   5   5
 76      1     2       9   9
                       7   7
                       4   4
                       8   8
 77      1     6       7   4   7   7   7   7
                       0   0   0   0   0   0
                       3   2   3   3   3   3
                       2   1   2   2   2   2
 78      1     7       9   9   9   9   9   9   9
                       7   7   7   7   7   7   7
                       5   5   5   5   5   5   5
                       0   0   0   0   0   0   0
 79      1     2       5   3
                       5   3
                       0   0
                       9   5
 80      1    10       1   1   1   1   1   1   1   1   1   1
                       8   8   8   8   8   8   8   8   8   8
                       5   5   5   5   5   5   5   5   5   5
                       0   0   0   0   0   0   0   0   0   0
 81      1     1       4
                       3
                       0
                       5
 82      1     8       6   6   6   6   6   6   6   6
                       3   3   3   3   3   3   3   3
                       0   0   0   0   0   0   0   0
                       4   4   4   4   4   4   4   4
 83      1     8       5   5   5   5   3   5   5   3
                       4   4   4   4   2   4   4   2
                       0   0   0   0   0   0   0   0
                       3   3   3   3   2   3   3   2
 84      1     5       0   0   0   0   0
                       0   0   0   0   0
                       4   4   4   4   4
                       3   3   3   3   3
 85      1    10      10  10  10  10  10  10  10  10  10  10
                       6   6   6   6   6   6   6   6   6   6
                       6   6   6   6   6   6   6   6   6   6
                       2   2   2   2   2   2   2   2   2   2
 86      1     7       7   7   7   7   7   7   7
                      10  10  10  10  10  10  10
                       2   2   2   2   2   2   2
                       0   0   0   0   0   0   0
 87      1     9       0   0   0   0   0   0   0   0   0
                       2   2   2   2   2   2   2   2   2
                      10  10  10  10  10  10  10  10  10
                       1   1   1   1   1   1   1   1   1
 88      1     2       1   1
                       6   6
                       2   2
                       2   2
 89      1     5       5   9   9   9   9
                       5  10  10  10  10
                       1   2   2   2   2
                       4   7   7   7   7
 90      1     9       8   8   8   8   4   8   8   8   8
                       5   5   5   5   3   5   5   5   5
                       4   4   4   4   2   4   4   4   4
                       0   0   0   0   0   0   0   0   0
 91      1     4       6   6   6   6
                       0   0   0   0
                       1   1   1   1
                       0   0   0   0
 92      1     1       2
                       1
                       0
                       1
 93      1     9       0   0   0   0   0   0   0   0   0
                       3   3   3   3   3   3   3   3   3
                       4   4   4   4   4   4   4   4   4
                       7   7   7   7   7   7   7   7   7
 94      1     4       2   2   2   2
                       5   5   5   5
                       8   8   8   8
                       0   0   0   0
 95      1     4       2   2   2   2
                       0   0   0   0
                       7   7   7   7
                       5   5   5   5
 96      1     8       5   5   5   5   3   5   5   5
                      10  10  10  10   5  10  10  10
                       0   0   0   0   0   0   0   0
                       0   0   0   0   0   0   0   0
 97      1     2       0   0
                       0   0
                       2   2
                       3   3
 98      1     4       5   5   5   5
                       0   0   0   0
                       0   0   0   0
                       5   5   5   5
 99      1     5       5   5   5   5   5
                       7   7   7   7   7
                       6   6   6   6   6
                       8   8   8   8   8
100      1     3       1   1   1
                       9   9   9
                       9   9   9
                       0   0   0
101      1     3       8   8   8
                       7   7   7
                      10  10  10
                       5   5   5
102      1    10       1   1   1   1   1   1   1   1   1   1
                       9   9   9   5   9   9   9   9   9   9
                       5   5   5   3   5   5   5   5   5   5
                       2   2   2   1   2   2   2   2   2   2
103      1     7       3   3   3   3   3   3   3
                       7   7   7   7   7   7   7
                       0   0   0   0   0   0   0
                       0   0   0   0   0   0   0
104      1     2       0   0
                       2   2
                       0   0
                       0   0
105      1    10       9   9   9   9   9   9   9   9   9   9
                      10  10  10  10  10  10  10  10  10  10
                       3   3   3   3   3   3   3   3   3   3
                       7   7   7   7   7   7   7   7   7   7
106      1     1       3
                       0
                       0
                       8
107      1     8       6   6   6   6   6   6   6   6
                       9   9   9   9   9   9   9   9
                       2   2   2   2   2   2   2   2
                       0   0   0   0   0   0   0   0
108      1     4       0   0   0   0
                       1   1   1   1
                       8   8   8   8
                       5   5   5   5
109      1     6       3   3   3   3   2   3
                       6   6   6   6   3   6
                       0   0   0   0   0   0
                       6   6   6   6   3   6
110      1     5       9   5   9   9   9
                       6   3   6   6   6
                       9   5   9   9   9
                       5   3   5   5   5
111      1     1       1
                       7
                      10
                       0
112      1     8       3   3   3   3   3   3   3   3
                       9   9   9   9   9   9   9   9
                       0   0   0   0   0   0   0   0
                       9   9   9   9   9   9   9   9
113      1     1       5
                       0
                       3
                       4
114      1     9       3   3   3   3   3   3   2   3   3
                       1   1   1   1   1   1   1   1   1
                       5   5   5   5   5   5   3   5   5
                      10  10  10  10  10  10   5  10  10
115      1     2       8   8
                       5   5
                       0   0
                       0   0
116      1    10      10  10  10  10  10  10  10  10  10  10
                       4   4   4   4   4   4   4   4   4   4
                       2   2   2   2   2   2   2   2   2   2
                       0   0   0   0   0   0   0   0   0   0
117      1     8       0   0   0   0   0   0   0   0
                       5   5   5   5   5   5   5   5
                       9   9   9   9   9   9   9   9
                       1   1   1   1   1   1   1   1
118      1     9       5   5   5   5   5   5   5   5   5
                       6   6   6   6   6   6   6   6   6
                       9   9   9   9   9   9   9   9   9
                       6   6   6   6   6   6   6   6   6
119      1     6       1   1   1   1   1   1
                       9   5   9   9   9   9
                       0   0   0   0   0   0
                       6   3   6   6   6   6
120      1     1       7
                       0
                       1
                       9
121      1     1       0
                      10
                       0
                       0
122      1     0    
************************************************************************
RESOURCEAVAILABILITIES:
  R 1  R 2  R 3  R 4

  20  20  20  20  20  20  20  20  20  20  20  20  20  20  10  20  20  20  20  20  20  20  20  20  20  20  20  20  20  20  20  20  20  20  20  20  20  20  20  20  20  20  20  20  10  20  20  20  20  20  20  20  20  20  20  20  20  10  20  20  20  20  20  20  20  20  20  20  20  20  20  20  20  20  20  20  20  20  20  10  20  20  20  10  20  20  20  20  20  20  20  20  20  20  20  20  20  20  20  20  20  20  20  20  20  20  20  20  20  20  20  20  20  20  20  20  20  20  20  20  20  20  20  20  20  20  20  20  20  20  20  20  20  10  20  20  20  20  20  20  10  20  20  20  20  20  20  20  20  20  20  20  10  20  20  20  20  20  20  20  10  10  20  20  10  20  10  20  20  20  20  20  20  20  20  20  20  20  20  20  20  20  20  20  20  20  10  20  20  20  20  20  20  20  20  20  20  20  20  20  20  20  20  20  20  10  20  20  20  20  10  20  20  20  20  20  20  20  20  20  20  20  20  20  20  20  20  20  20  20  20  20  20  20  20  20  20  20  20  20  20  20  20  20  20  20  10  20  20  20  20  20  20  20  20  20  20  20  20  20  20  20  20  20  20  20  20  20  20  20  20  10  20  20  20  20  20  20  20  20  20  20  20  20  20  20  20  20  20  20  20  20  20  20  20  20  20  20  20  20  20  10  20  20  20  10  20  20  20  20  20  20  20  20  20  20  20  20  20  20  10  20  20  20  20  10  20  20  20  10  20  20  20  20  20  20  20  20  20  20  20  20  20  20  20  20  20  20  20  20  20  20  20  10  20  20  20  20  20  20  20  20  20  20  20  20  20  20  20  20  20  10  20  20  20  10  20  20  20  20  20  20  20  20  20  10  20  20  20  10  20  10  20  20  20  20  20  20  20  20  20  20  20  20  20  20  20  20  20  20  20  10  20  20  20  20  20  20  20  10  20  20  20  20  20  20  20  20  20  20  20  20  20  20  20  20  20  20  20  20  20  20  20  20  20  20  10  20  20  20  20  20  20  20  20  20  20  20  20  20  20  20  20  20  20  20  20  20  20  20  20  20  20  20  20  20  20  20  20  20  20  20  10  20  20  20  20  20  20  20  20  20  20  20  20  20  20  20  20  20  20  20  20  20  20  20  10  20  20  20  20  20  20  20  20  20  20  20  20  20  20  20  20  20  20  20  20  20  20  20  10  20  20  20  20  20  20  20  20  20  20  20  10  20  20  20  20  20  20  20  20  20  20  20  20  20  20  20  20  20  20  20  20  20  20  20  20  20  20  20  20  20  10  20  20  20  20  20  20  20  20  20  20  20  10  10  20  20  20  20  20  20  20  20  20  20  20  20  20  20  20  20  20  20  20  20  20  20  20  20  20  20  20  20  20  20  20  20  20  20  20  20  20  20  20  20  10  20  20  20  20  20  20  20  20  20  20  20  20  20  20  20  20  20  20  20  20  20

  19  19  19  19  19  19  19  19  19  19  19  19  19  19  10  19  19  19  19  19  19  19  19  19  19  19  19  19  19  19  19  19  19  19  19  19  19  19  19  19  19  19  19  19  10  19  19  19  19  19  19  19  19  19  19  19  19  10  19  19  19  19  19  19  19  19  19  19  19  19  19  19  19  19  19  19  19  19  19  10  19  19  19  10  19  19  19  19  19  19  19  19  19  19  19  19  19  19  19  19  19  19  19  19  19  19  19  19  19  19  19  19  19  19  19  19  19  19  19  19  19  19  19  19  19  19  19  19  19  19  19  19  19  10  19  19  19  19  19  19  10  19  19  19  19  19  19  19  19  19  19  19  10  19  19  19  19  19  19  19  10  10  19  19  10  19  10  19  19  19  19  19  19  19  19  19  19  19  19  19  19  19  19  19  19  19  10  19  19  19  19  19  19  19  19  19  19  19  19  19  19  19  19  19  19  10  19  19  19  19  10  19  19  19  19  19  19  19  19  19  19  19  19  19  19  19  19  19  19  19  19  19  19  19  19  19  19  19  19  19  19  19  19  19  19  19  10  19  19  19  19  19  19  19  19  19  19  19  19  19  19  19  19  19  19  19  19  19  19  19  19  10  19  19  19  19  19  19  19  19  19  19  19  19  19  19  19  19  19  19  19  19  19  19  19  19  19  19  19  19  19  10  19  19  19  10  19  19  19  19  19  19  19  19  19  19  19  19  19  19  10  19  19  19  19  10  19  19  19  10  19  19  19  19  19  19  19  19  19  19  19  19  19  19  19  19  19  19  19  19  19  19  19  10  19  19  19  19  19  19  19  19  19  19  19  19  19  19  19  19  19  10  19  19  19  10  19  19  19  19  19  19  19  19  19  10  19  19  19  10  19  10  19  19  19  19  19  19  19  19  19  19  19  19  19  19  19  19  19  19  19  10  19  19  19  19  19  19  19  10  19  19  19  19  19  19  19  19  19  19  19  19  19  19  19  19  19  19  19  19  19  19  19  19  19  19  10  19  19  19  19  19  19  19  19  19  19  19  19  19  19  19  19  19  19  19  19  19  19  19  19  19  19  19  19  19  19  19  19  19  19  19  10  19  19  19  19  19  19  19  19  19  19  19  19  19  19  19  19  19  19  19  19  19  19  19  10  19  19  19  19  19  19  19  19  19  19  19  19  19  19  19  19  19  19  19  19  19  19  19  10  19  19  19  19  19  19  19  19  19  19  19  10  19  19  19  19  19  19  19  19  19  19  19  19  19  19  19  19  19  19  19  19  19  19  19  19  19  19  19  19  19  10  19  19  19  19  19  19  19  19  19  19  19  10  10  19  19  19  19  19  19  19  19  19  19  19  19  19  19  19  19  19  19  19  19  19  19  19  19  19  19  19  19  19  19  19  19  19  19  19  19  19  19  19  19  10  19  19  19  19  19  19  19  19  19  19  19  19  19  19  19  19  19  19  19  19  19

  18  18  18  18  18  18  18  18  18  18  18  18  18  18   9  18  18  18  18  18  18  18  18  18  18  18  18  18  18  18  18  18  18  18  18  18  18  18  18  18  18  18  18  18   9  18  18  18  18  18  18  18  18  18  18  18  18   9  18  18  18  18  18  18  18  18  18  18  18  18  18  18  18  18  18  18  18  18  18   9  18  18  18   9  18  18  18  18  18  18  18  18  18  18  18  18  18  18  18  18  18  18  18  18  18  18  18  18  18  18  18  18  18  18  18  18  18  18  18  18  18  18  18  18  18  18  18  18  18  18  18  18  18   9  18  18  18  18  18  18   9  18  18  18  18  18  18  18  18  18  18  18   9  18  18  18  18  18  18  18   9   9  18  18   9  18   9  18  18  18  18  18  18  18  18  18  18  18  18  18  18  18  18  18  18  18   9  18  18  18  18  18  18  18  18  18  18  18  18  18  18  18  18  18  18   9  18  18  18  18   9  18  18  18  18  18  18  18  18  18  18  18  18  18  18  18  18  18  18  18  18  18  18  18  18  18  18  18  18  18  18  18  18  18  18  18   9  18  18  18  18  18  18  18  18  18  18  18  18  18  18  18  18  18  18  18  18  18  18  18  18   9  18  18  18  18  18  18  18  18  18  18  18  18  18  18  18  18  18  18  18  18  18  18  18  18  18  18  18  18  18   9  18  18  18   9  18  18  18  18  18  18  18  18  18  18  18  18  18  18   9  18  18  18  18   9  18  18  18   9  18  18  18  18  18  18  18  18  18  18  18  18  18  18  18  18  18  18  18  18  18  18  18   9  18  18  18  18  18  18  18  18  18  18  18  18  18  18  18  18  18   9  18  18  18   9  18  18  18  18  18  18  18  18  18   9  18  18  18   9  18   9  18  18  18  18  18  18  18  18  18  18  18  18  18  18  18  18  18  18  18   9  18  18  18  18  18  18  18   9  18  18  18  18  18  18  18  18  18  18  18  18  18  18  18  18  18  18  18  18  18  18  18  18  18  18   9  18  18  18  18  18  18  18  18  18  18  18  18  18  18  18  18  18  18  18  18  18  18  18  18  18  18  18  18  18  18  18  18  18  18  18   9  18  18  18  18  18  18  18  18  18  18  18  18  18  18  18  18  18  18  18  18  18  18  18   9  18  18  18  18  18  18  18  18  18  18  18  18  18  18  18  18  18  18  18  18  18  18  18   9  18  18  18  18  18  18  18  18  18  18  18   9  18  18  18  18  18  18  18  18  18  18  18  18  18  18  18  18  18  18  18  18  18  18  18  18  18  18  18  18  18   9  18  18  18  18  18  18  18  18  18  18  18   9   9  18  18  18  18  18  18  18  18  18  18  18  18  18  18  18  18  18  18  18  18  18  18  18  18  18  18  18  18  18  18  18  18  18  18  18  18  18  18  18  18   9  18  18  18  18  18  18  18  18  18  18  18  18  18  18  18  18  18  18  18  18  18

  20  20  20  20  20  20  20  20  20  20  20  20  20  20  10  20  20  20  20  20  20  20  20  20  20  20  20  20  20  20  20  20  20  20  20  20  20  20  20  20  20  20  20  20  10  20  20  20  20  20  20  20  20  20  20  20  20  10  20  20  20  20  20  20  20  20  20  20  20  20  20  20  20  20  20  20  20  20  20  10  20  20  20  10  20  20  20  20  20  20  20  20  20  20  20  20  20  20  20  20  20  20  20  20  20  20  20  20  20  20  20  20  20  20  20  20  20  20  20  20  20  20  20  20  20  20  20  20  20  20  20  20  20  10  20  20  20  20  20  20  10  20  20  20  20  20  20  20  20  20  20  20  10  20  20  20  20  20  20  20  10  10  20  20  10  20  10  20  20  20  20  20  20  20  20  20  20  20  20  20  20  20  20  20  20  20  10  20  20  20  20  20  20  20  20  20  20  20  20  20  20  20  20  20  20  10  20  20  20  20  10  20  20  20  20  20  20  20  20  20  20  20  20  20  20  20  20  20  20  20  20  20  20  20  20  20  20  20  20  20  20  20  20  20  20  20  10  20  20  20  20  20  20  20  20  20  20  20  20  20  20  20  20  20  20  20  20  20  20  20  20  10  20  20  20  20  20  20  20  20  20  20  20  20  20  20  20  20  20  20  20  20  20  20  20  20  20  20  20  20  20  10  20  20  20  10  20  20  20  20  20  20  20  20  20  20  20  20  20  20  10  20  20  20  20  10  20  20  20  10  20  20  20  20  20  20  20  20  20  20  20  20  20  20  20  20  20  20  20  20  20  20  20  10  20  20  20  20  20  20  20  20  20  20  20  20  20  20  20  20  20  10  20  20  20  10  20  20  20  20  20  20  20  20  20  10  20  20  20  10  20  10  20  20  20  20  20  20  20  20  20  20  20  20  20  20  20  20  20  20  20  10  20  20  20  20  20  20  20  10  20  20  20  20  20  20  20  20  20  20  20  20  20  20  20  20  20  20  20  20  20  20  20  20  20  20  10  20  20  20  20  20  20  20  20  20  20  20  20  20  20  20  20  20  20  20  20  20  20  20  20  20  20  20  20  20  20  20  20  20  20  20  10  20  20  20  20  20  20  20  20  20  20  20  20  20  20  20  20  20  20  20  20  20  20  20  10  20  20  20  20  20  20  20  20  20  20  20  20  20  20  20  20  20  20  20  20  20  20  20  10  20  20  20  20  20  20  20  20  20  20  20  10  20  20  20  20  20  20  20  20  20  20  20  20  20  20  20  20  20  20  20  20  20  20  20  20  20  20  20  20  20  10  20  20  20  20  20  20  20  20  20  20  20  10  10  20  20  20  20  20  20  20  20  20  20  20  20  20  20  20  20  20  20  20  20  20  20  20  20  20  20  20  20  20  20  20  20  20  20  20  20  20  20  20  20  10  20  20  20  20  20  20  20  20  20  20  20  20  20  20  20  20  20  20  20  20  20

************************************************************************
